\ LP format - for model browsing. Use MPS format to capture full model detail.
Maximize
  3 x_1 + 2 x_2 + x_3 + 10 x_4 + 4 x_5 + 3 x_6 + 10 x_7 + 5 x_8 + 9 x_9
   + 7 x_10
Subject To
 C_1: 8 x_1 + 6 x_2 + x_3 + 7 x_4 + 9 x_5 + 2 x_6 + 8 x_7 + 5 x_8 + 4 x_9
   + 3 x_10 <= 26
 C_2: 10 x_1 + 2 x_2 + 3 x_3 + 5 x_4 + x_5 + 6 x_6 + 5 x_7 + x_8 + 2 x_9
   + 7 x_10 <= 21
 C_3: 7 x_1 + 6 x_2 + x_3 + 9 x_4 + 6 x_5 + 4 x_6 + x_7 + 7 x_8 + 10 x_9
   + 9 x_10 <= 30
 C_4: 3 x_1 + 9 x_2 + 5 x_3 + 3 x_4 + 6 x_5 + 5 x_6 + 7 x_7 + 5 x_8 + x_9
   + 10 x_10 <= 27
 C_5: 7 x_1 + 2 x_2 + 3 x_3 + x_4 + 7 x_5 + 6 x_6 + 6 x_7 + 3 x_8 + 8 x_9
   + 9 x_10 <= 26
Bounds
Binaries
 x_1 x_2 x_3 x_4 x_5 x_6 x_7 x_8 x_9 x_10
End
